10
2147483647 55 3 31 27 47 84 15 22 46 
55 2147483647 57 42 35 91 23 39 66 78 
3 57 2147483647 5 34 91 37 26 50 24 
31 42 5 2147483647 36 38 14 89 64 53 
27 35 34 36 2147483647 4 46 63 70 23 
47 91 91 38 4 2147483647 57 47 84 11 
84 23 37 14 46 57 2147483647 74 28 10 
15 39 26 89 63 47 74 2147483647 11 90 
22 66 50 64 70 84 28 11 2147483647 37 
46 78 24 53 23 11 10 90 37 2147483647 
